145 165 10206
43 49 84 74 64 70 93 59 93 68 67 65 46 72 34 78 42 51 50 90 73 43 73 68 47 88 65 69 88 65 36 34 73 57 74
69 34 67 92 56 35 47 41 104 103 78 79 53 38 42 72 71 80 62 92 85 46 62 77 42 47 53 74 89 86 94 104 86 81 41
315 441 342 505 691 531 399 418 236 639 452 237 348 696 250 556 285 203 741 732 611 499 184 460 324 420 749 189 279 445 713 396 150 446 692
380 545 431 557 710 650 504 513 290 597 424 265 415 889 262 583 366 258 822 733 711 526 210 589 330 453 950 221 307 486 705 355 174 541 678
